============================[ Problem Statistics ]=============================|                                                                             ||  Number of variables:          4242                                         ||  Number of clauses:           10259                                         ||  Parse time:                   0.64 s                                       ||                                                                             |============================[ Search Statistics ]==============================| Conflicts |          ORIGINAL         |          LEARNT          | Progress ||           |    Vars  Clauses Literals |    Limit  Clauses Lit/Cl |          |===============================================================================|       100 |    1591     6464  1031625 |     2370      100     53 | 62.501 % ||       250 |    1591     6464  1031625 |     2607      250     75 | 62.495 % |===============================================================================restarts              : 3conflicts             : 354            (360 /sec)decisions             : 622            (0.00 % random) (633 /sec)propagations          : 11965          (12172 /sec)conflict literals     : 28794          (94.62 % deleted)CPU time              : 0.983 sSATISFIABLE